NAME: tsp15_18
COMMENT: 15-tsp problem (Padberg/Rinaldi)
TYPE: TSP
DIMENSION: 15
EDGE_WEIGHT_TYPE : EUC_2D
NODE_COORD_SECTION
1.00 31.11 22.60
2.00 16.12 21.65
3.00 36.41 37.55
4.00 38.80 27.29
5.00 13.11 2.91
6.00 10.06 1.01
7.00 7.07 1.84
8.00 26.12 10.31
9.00 25.92 35.35
10.00 14.69 16.81
11.00 20.90 10.59
12.00 9.56 36.06
13.00 2.30 5.03
14.00 31.05 15.24
15.00 10.33 0.52
